8784954215620279264509,11,1,2,01,5,1,2,013,13,1,2,014,6,1,2,014,1,1,2,06,13,1,2,03,8,1,2,01,5,1,2,014,8,1,2,04,3,1,2,09,3,1,2,015,4,1,2,03,2,1,2,03,7,1,2,01,8,1,2,09,6,1,2,08,2,1,2,012,9,1,2,013,8,1,2,013,8,1,2,011,10,1,2,011,10,1,2,06,1,1,2,09,12,1,2,014,8,1,2,05,7,1,2,05,9,1,2,012,12,1,2,014,15,1,2,03,11,1,2,014,10,1,2,010,11,1,2,09,7,1,2,06,14,1,2,010,10,1,2,02,9,1,2,012,3,1,2,011,1,1,2,02,14,1,2,01,8,1,2,05,2,1,2,03,8,1,2,013,8,1,2,015,12,1,2,015,12,1,2,06,15,1,2,015,4,1,2,04,11,1,2,05,5,1,2,08,4,1,2,0